0000000000000000
0000001111100000
0000110000111000
0011000000001100
0000000000000100
0000000000000100
0000011011001100
0000010001110000
0000001111010000
0000000000010000
0000000000010000
0000000000100000
0000000000100000
0000000000100000
0000000000100000
0000000000000000
